************************************************************************
file with basedata            : J12023_.BAS
initial value random generator: 1147941517
************************************************************************
projects                      :  1
jobs (incl. supersource/sink ):  122
horizon                       :  603
RESOURCES
  - renewable                 :  4   R
  - nonrenewable              :  0   N
  - doubly constrained        :  0   D
************************************************************************
PROJECT INFORMATION:
pronr.  #jobs rel.date duedate tardcost  MPM-Time
    1    120      0      100       97      100
************************************************************************
PRECEDENCE RELATIONS:
jobnr.    #modes  #successors   successors
   1        1          3           2   3   4
   2        1          3           9  14  60
   3        1          3          24  45  51
   4        1          3           5   6   7
   5        1          3           8  37  50
   6        1          3          11  40  69
   7        1          2          20  74
   8        1          3          16  18  23
   9        1          3          10  12  13
  10        1          3          15  41  79
  11        1          1          97
  12        1          1          57
  13        1          2          39  68
  14        1          3          17  21  35
  15        1          2          40  66
  16        1          3          26  28  43
  17        1          3          30  53  89
  18        1          3          19  29  58
  19        1          2          34 118
  20        1          3          25  36  47
  21        1          2          22  80
  22        1          3          33  38  72
  23        1          3          55  61  64
  24        1          3          27  32  62
  25        1          2          71 101
  26        1          2          70  85
  27        1          2          39  87
  28        1          3          42  56 103
  29        1          3          31  75  99
  30        1          1          72
  31        1          1          95
  32        1          1          88
  33        1          3          40  44  49
  34        1          1         109
  35        1          1          77
  36        1          3          46  89 112
  37        1          3          46  81  91
  38        1          1         106
  39        1          1          42
  40        1          3          54  76  78
  41        1          1          48
  42        1          2          82  96
  43        1          1          63
  44        1          1          57
  45        1          3          49  65  80
  46        1          2          53  87
  47        1          3          64  68 102
  48        1          2          84 119
  49        1          2          59  67
  50        1          1          95
  51        1          2          52  61
  52        1          1          82
  53        1          3          66  73  82
  54        1          3          68  73  93
  55        1          1          95
  56        1          1          61
  57        1          1          90
  58        1          1          85
  59        1          1          83
  60        1          1          87
  61        1          3          65  94 107
  62        1          1         101
  63        1          1          64
  64        1          2          97 105
  65        1          2          74  96
  66        1          1         102
  67        1          3          69  98 115
  68        1          3          92 100 111
  69        1          2          81  85
  70        1          3          73  78 100
  71        1          1         116
  72        1          2          83 113
  73        1          1         108
  74        1          1          99
  75        1          1         100
  76        1          1         117
  77        1          2          86 120
  78        1          1          90
  79        1          1          98
  80        1          1         104
  81        1          1         111
  82        1          2          84 106
  83        1          2          92 117
  84        1          1         104
  85        1          2          86  94
  86        1          1         112
  87        1          2          92 109
  88        1          3          89  93 101
  89        1          2          90 105
  90        1          3         103 107 110
  91        1          2          93  98
  92        1          2          97 103
  93        1          2          94  99
  94        1          1         106
  95        1          2          96 105
  96        1          1         114
  97        1          1         114
  98        1          2         109 112
  99        1          1         115
 100        1          1         117
 101        1          1         102
 102        1          1         104
 103        1          2         108 116
 104        1          2         107 108
 105        1          1         110
 106        1          3         110 111 121
 107        1          1         121
 108        1          1         115
 109        1          1         114
 110        1          1         113
 111        1          1         116
 112        1          1         113
 113        1          1         119
 114        1          1         119
 115        1          2         118 121
 116        1          1         118
 117        1          1         120
 118        1          1         120
 119        1          1         122
 120        1          1         122
 121        1          1         122
 122        1          0        
************************************************************************
REQUESTS/DURATIONS:
jobnr. mode duration  R 1  R 2  R 3  R 4
------------------------------------------------------------------------
  1      1     0       0    0    0    0
  2      1    10       8    0    0    0
  3      1     9       0    0    2    0
  4      1     2       2    0    0    0
  5      1     1       0    0    8    0
  6      1     5       4    0    0    0
  7      1     6       0    0    0    2
  8      1     6       5    0    0    0
  9      1     3       0    9    0    0
 10      1     3       0    0    0   10
 11      1     3       1    0    0    0
 12      1     6       0    0    7    0
 13      1     7       0    0    2    0
 14      1    10       0    0    0    5
 15      1     9       0    9    0    0
 16      1     5       0    0    0    1
 17      1     8       0    0    0    2
 18      1     9       8    0    0    0
 19      1     1       0    0    0    9
 20      1     1       0    4    0    0
 21      1     8       0   10    0    0
 22      1     3       0    0    0    2
 23      1     1       0    2    0    0
 24      1     1       0    4    0    0
 25      1     3       0    0    0    5
 26      1     3       9    0    0    0
 27      1     4       0    0    0    4
 28      1     1       8    0    0    0
 29      1     2      10    0    0    0
 30      1     5       4    0    0    0
 31      1     2       0    0    0    9
 32      1    10       0    3    0    0
 33      1     3       0    0    5    0
 34      1     2       0    0    5    0
 35      1     7       0    0    5    0
 36      1     9       0    0    0    3
 37      1     3       0    0    9    0
 38      1     9       0    0    4    0
 39      1     5       0    0    0    5
 40      1     9       4    0    0    0
 41      1     2       0    0    0   10
 42      1    10       0    0    8    0
 43      1    10       7    0    0    0
 44      1     5       0   10    0    0
 45      1     4       0    5    0    0
 46      1     5       5    0    0    0
 47      1     1       9    0    0    0
 48      1     2       9    0    0    0
 49      1     9       0    1    0    0
 50      1    10       0    4    0    0
 51      1     8       0    0    5    0
 52      1    10       6    0    0    0
 53      1     1       4    0    0    0
 54      1     9       0    0    0    7
 55      1     7       0    0    0    9
 56      1     2       4    0    0    0
 57      1     7       0    9    0    0
 58      1     9       0    0    0    3
 59      1    10       0    0    0    8
 60      1     2       0    0    0   10
 61      1     3       0    0    0    8
 62      1     2       0    0    0    7
 63      1     3       0    5    0    0
 64      1     2       0    3    0    0
 65      1     3       0    3    0    0
 66      1     7       0    3    0    0
 67      1     7       0    0    3    0
 68      1     3       0    0    0    7
 69      1     6       0    0    0    9
 70      1     1       8    0    0    0
 71      1     4       0    7    0    0
 72      1     5       0    0    0    8
 73      1     9       0    0    5    0
 74      1     9       0    0    5    0
 75      1     5       0    0    0    5
 76      1     1       0    0    6    0
 77      1     1       0    0   10    0
 78      1     2       0    6    0    0
 79      1     8       0    0    2    0
 80      1     6       0    0    0    1
 81      1     3       0    0    0    8
 82      1     1       0    3    0    0
 83      1     5       0    0    0    2
 84      1     7       0    1    0    0
 85      1     9       9    0    0    0
 86      1    10       0    0    8    0
 87      1     3       0    9    0    0
 88      1     5       0    5    0    0
 89      1     5       0    1    0    0
 90      1     5       0    0    0    6
 91      1     7       0    8    0    0
 92      1     9       4    0    0    0
 93      1    10       0    8    0    0
 94      1     9       0    0    0   10
 95      1    10       0    0    6    0
 96      1     8       0    0    0    6
 97      1     2       0    0    0    6
 98      1     4       0    0    7    0
 99      1     7       1    0    0    0
100      1     3       0    5    0    0
101      1     1       0    3    0    0
102      1     1       0    0    9    0
103      1     1       1    0    0    0
104      1     2       0    0    9    0
105      1     3       0    5    0    0
106      1     4       0    6    0    0
107      1     2       6    0    0    0
108      1     1       2    0    0    0
109      1     6       8    0    0    0
110      1     4       0    8    0    0
111      1     1       0    8    0    0
112      1     2       0    0    0    3
113      1     7       8    0    0    0
114      1     3       0    0    0   10
115      1     3       0    0    0    5
116      1     8       0    0    1    0
117      1     1       0    0    0    8
118      1     6       0    0    7    0
119      1     5       4    0    0    0
120      1     7       4    0    0    0
121      1     9       0    0    0   10
122      1     0       0    0    0    0
************************************************************************
RESOURCEAVAILABILITIES:
  R 1  R 2  R 3  R 4
   18   18   16   20
************************************************************************
